(set-info :smt-lib-version 2.6)
(set-info :category "crafted")
(set-logic QF_FF)
(define-sort FF0 () (_ FiniteField 52435875175126190479447740508185965837690552500527637822603658699938581184513))
(declare-fun out_alt () FF0)
(declare-fun _109_alt () FF0)
(declare-fun _108_alt () FF0)
(declare-fun _13_alt () FF0)
(declare-fun _107_alt () FF0)
(declare-fun _84_alt () FF0)
(declare-fun _83_alt () FF0)
(declare-fun _106_alt () FF0)
(declare-fun _86_alt () FF0)
(declare-fun _105_alt () FF0)
(declare-fun _91_alt () FF0)
(declare-fun _90_alt () FF0)
(declare-fun _104_alt () FF0)
(declare-fun _97_alt () FF0)
(declare-fun _36_alt () FF0)
(declare-fun _103_alt () FF0)
(declare-fun _62_alt () FF0)
(declare-fun _102_alt () FF0)
(declare-fun _4_alt () FF0)
(declare-fun _101_alt () FF0)
(declare-fun _99_alt () FF0)
(declare-fun _100_alt () FF0)
(declare-fun _77_alt () FF0)
(declare-fun _76_alt () FF0)
(declare-fun _48_alt () FF0)
(declare-fun _32_alt () FF0)
(declare-fun _30_alt () FF0)
(declare-fun _96_alt () FF0)
(declare-fun _95_alt () FF0)
(declare-fun _35_alt () FF0)
(declare-fun _94_alt () FF0)
(declare-fun _54_alt () FF0)
(declare-fun _93_alt () FF0)
(declare-fun _79_alt () FF0)
(declare-fun _72_alt () FF0)
(declare-fun _9_alt () FF0)
(declare-fun _56_alt () FF0)
(declare-fun _19_alt () FF0)
(declare-fun _57_alt () FF0)
(declare-fun _63_alt () FF0)
(declare-fun _71_alt () FF0)
(declare-fun _70_alt () FF0)
(declare-fun _2_alt () FF0)
(declare-fun _69_alt () FF0)
(declare-fun _68_alt () FF0)
(declare-fun _67_alt () FF0)
(declare-fun _66_alt () FF0)
(declare-fun _61_alt () FF0)
(declare-fun _7_alt () FF0)
(declare-fun _60_alt () FF0)
(declare-fun _16_alt () FF0)
(declare-fun _59_alt () FF0)
(declare-fun _17_alt () FF0)
(declare-fun _0_alt () FF0)
(declare-fun _53_alt () FF0)
(declare-fun _52_alt () FF0)
(declare-fun _18_alt () FF0)
(declare-fun _51_alt () FF0)
(declare-fun _5_alt () FF0)
(declare-fun _50_alt () FF0)
(declare-fun _49_alt () FF0)
(declare-fun _47_alt () FF0)
(declare-fun _46_alt () FF0)
(declare-fun _45_alt () FF0)
(declare-fun _44_alt () FF0)
(declare-fun _43_alt () FF0)
(declare-fun _42_alt () FF0)
(declare-fun _1_alt () FF0)
(declare-fun _41_alt () FF0)
(declare-fun _40_alt () FF0)
(declare-fun _39_alt () FF0)
(declare-fun _38_alt () FF0)
(declare-fun _34_alt () FF0)
(declare-fun _6_alt () FF0)
(declare-fun _33_alt () FF0)
(declare-fun _31_alt () FF0)
(declare-fun _29_alt () FF0)
(declare-fun _28_alt () FF0)
(declare-fun _27_alt () FF0)
(declare-fun _26_alt () FF0)
(declare-fun _25_alt () FF0)
(declare-fun _24_alt () FF0)
(declare-fun _23_alt () FF0)
(declare-fun _3_alt () FF0)
(declare-fun _22_alt () FF0)
(declare-fun _21_alt () FF0)
(declare-fun _20_alt () FF0)
(declare-fun _15_alt () FF0)
(declare-fun _14_alt () FF0)
(declare-fun _11_alt () FF0)
(declare-fun out () FF0)
(declare-fun _109 () FF0)
(declare-fun _108 () FF0)
(declare-fun _13 () FF0)
(declare-fun _107 () FF0)
(declare-fun _84 () FF0)
(declare-fun _83 () FF0)
(declare-fun _106 () FF0)
(declare-fun _86 () FF0)
(declare-fun _105 () FF0)
(declare-fun _91 () FF0)
(declare-fun _90 () FF0)
(declare-fun _104 () FF0)
(declare-fun _97 () FF0)
(declare-fun _36 () FF0)
(declare-fun _103 () FF0)
(declare-fun _62 () FF0)
(declare-fun _102 () FF0)
(declare-fun _4 () FF0)
(declare-fun _101 () FF0)
(declare-fun _99 () FF0)
(declare-fun _100 () FF0)
(declare-fun _77 () FF0)
(declare-fun _76 () FF0)
(declare-fun _48 () FF0)
(declare-fun _32 () FF0)
(declare-fun _30 () FF0)
(declare-fun _96 () FF0)
(declare-fun _95 () FF0)
(declare-fun _35 () FF0)
(declare-fun _94 () FF0)
(declare-fun _54 () FF0)
(declare-fun _93 () FF0)
(declare-fun _79 () FF0)
(declare-fun _72 () FF0)
(declare-fun _9 () FF0)
(declare-fun _56 () FF0)
(declare-fun _19 () FF0)
(declare-fun _57 () FF0)
(declare-fun _63 () FF0)
(declare-fun _71 () FF0)
(declare-fun _70 () FF0)
(declare-fun _2 () FF0)
(declare-fun _69 () FF0)
(declare-fun _68 () FF0)
(declare-fun _67 () FF0)
(declare-fun _66 () FF0)
(declare-fun _61 () FF0)
(declare-fun _7 () FF0)
(declare-fun _60 () FF0)
(declare-fun _16 () FF0)
(declare-fun _59 () FF0)
(declare-fun _17 () FF0)
(declare-fun _0 () FF0)
(declare-fun _53 () FF0)
(declare-fun _52 () FF0)
(declare-fun _18 () FF0)
(declare-fun _51 () FF0)
(declare-fun _5 () FF0)
(declare-fun _50 () FF0)
(declare-fun _49 () FF0)
(declare-fun _47 () FF0)
(declare-fun _46 () FF0)
(declare-fun _45 () FF0)
(declare-fun _44 () FF0)
(declare-fun _43 () FF0)
(declare-fun _42 () FF0)
(declare-fun _1 () FF0)
(declare-fun _41 () FF0)
(declare-fun _40 () FF0)
(declare-fun _39 () FF0)
(declare-fun _38 () FF0)
(declare-fun _34 () FF0)
(declare-fun _6 () FF0)
(declare-fun _33 () FF0)
(declare-fun _31 () FF0)
(declare-fun _29 () FF0)
(declare-fun _28 () FF0)
(declare-fun _27 () FF0)
(declare-fun _26 () FF0)
(declare-fun _25 () FF0)
(declare-fun _24 () FF0)
(declare-fun _23 () FF0)
(declare-fun _3 () FF0)
(declare-fun _22 () FF0)
(declare-fun _21 () FF0)
(declare-fun _20 () FF0)
(declare-fun _15 () FF0)
(declare-fun _14 () FF0)
(declare-fun _11 () FF0)
(assert 
  (let ((let0 out_alt))
  (let ((let1 _109_alt))
  (let ((let2 (= let1 let0)))
  (let ((let3 (as ff52435875175126190479447740508185965837690552500527637822603658699938581184512 FF0)))
  (let ((let4 (ff.mul let1 let3)))
  (let ((let5 _108_alt))
  (let ((let6 _13_alt))
  (let ((let7 (ff.add let6 let5 let4)))
  (let ((let8 (ff.mul let5 let6)))
  (let ((let9 (= let8 let7)))
  (let ((let10 (ff.mul let5 let3)))
  (let ((let11 _107_alt))
  (let ((let12 _84_alt))
  (let ((let13 _83_alt))
  (let ((let14 (ff.add let13 let12 let11 let10)))
  (let ((let15 (ff.add let13 let12)))
  (let ((let16 (ff.mul let11 let15)))
  (let ((let17 (= let16 let14)))
  (let ((let18 (ff.mul let11 let3)))
  (let ((let19 _106_alt))
  (let ((let20 _86_alt))
  (let ((let21 (ff.add let20 let19 let18)))
  (let ((let22 (ff.mul let19 let20)))
  (let ((let23 (= let22 let21)))
  (let ((let24 (ff.mul let19 let3)))
  (let ((let25 _105_alt))
  (let ((let26 _91_alt))
  (let ((let27 _90_alt))
  (let ((let28 (ff.add let27 let26 let25 let24)))
  (let ((let29 (ff.add let27 let26)))
  (let ((let30 (ff.mul let25 let29)))
  (let ((let31 (= let30 let28)))
  (let ((let32 (ff.mul let25 let3)))
  (let ((let33 _104_alt))
  (let ((let34 _97_alt))
  (let ((let35 (ff.add let34 let33 let32)))
  (let ((let36 (ff.mul let33 let34)))
  (let ((let37 (= let36 let35)))
  (let ((let38 (as ff1 FF0)))
  (let ((let39 _36_alt))
  (let ((let40 (ff.mul let39 let3)))
  (let ((let41 (ff.add let40 let38)))
  (let ((let42 _103_alt))
  (let ((let43 (ff.mul let42 let41)))
  (let ((let44 (= let43 let33)))
  (let ((let45 _62_alt))
  (let ((let46 (ff.mul let45 let3)))
  (let ((let47 (ff.add let46 let38)))
  (let ((let48 _102_alt))
  (let ((let49 (ff.mul let48 let47)))
  (let ((let50 (= let49 let42)))
  (let ((let51 _4_alt))
  (let ((let52 _101_alt))
  (let ((let53 (ff.mul let52 let51)))
  (let ((let54 (= let53 let48)))
  (let ((let55 _99_alt))
  (let ((let56 _100_alt))
  (let ((let57 (ff.mul let56 let55)))
  (let ((let58 (= let57 let52)))
  (let ((let59 _77_alt))
  (let ((let60 _76_alt))
  (let ((let61 (ff.add let60 let59)))
  (let ((let62 _48_alt))
  (let ((let63 (ff.mul let62 let3)))
  (let ((let64 (ff.add let63 let38)))
  (let ((let65 (ff.mul let64 let61)))
  (let ((let66 (= let65 let56)))
  (let ((let67 (ff.mul let55 let3)))
  (let ((let68 _32_alt))
  (let ((let69 (ff.mul let68 let3)))
  (let ((let70 _30_alt))
  (let ((let71 (ff.add let70 let69 let67 let38)))
  (let ((let72 (ff.add let69 let38)))
  (let ((let73 (ff.mul let72 let70)))
  (let ((let74 (= let73 let71)))
  (let ((let75 (ff.mul let34 let3)))
  (let ((let76 _96_alt))
  (let ((let77 (ff.add let62 let76 let75)))
  (let ((let78 (ff.mul let76 let62)))
  (let ((let79 (= let78 let77)))
  (let ((let80 (ff.mul let76 let3)))
  (let ((let81 _95_alt))
  (let ((let82 _35_alt))
  (let ((let83 (ff.add let82 let81 let80)))
  (let ((let84 (ff.mul let81 let82)))
  (let ((let85 (= let84 let83)))
  (let ((let86 (ff.mul let81 let3)))
  (let ((let87 _94_alt))
  (let ((let88 _54_alt))
  (let ((let89 (ff.mul let88 let3)))
  (let ((let90 (ff.add let89 let87 let86 let38)))
  (let ((let91 (ff.add let89 let38)))
  (let ((let92 (ff.mul let87 let91)))
  (let ((let93 (= let92 let90)))
  (let ((let94 (ff.mul let87 let3)))
  (let ((let95 _93_alt))
  (let ((let96 _79_alt))
  (let ((let97 (ff.add let96 let95 let94)))
  (let ((let98 (ff.mul let95 let96)))
  (let ((let99 (= let98 let97)))
  (let ((let100 (ff.mul let95 let3)))
  (let ((let101 (ff.add let88 let60 let59 let100)))
  (let ((let102 (ff.mul let88 let61)))
  (let ((let103 (= let102 let101)))
  (let ((let104 _72_alt))
  (let ((let105 (ff.mul let104 let3)))
  (let ((let106 (ff.add let105 let38)))
  (let ((let107 (ff.mul let106 let68)))
  (let ((let108 (= let107 let26)))
  (let ((let109 (ff.mul let104 let45)))
  (let ((let110 (= let109 let27)))
  (let ((let111 (as ff2 FF0)))
  (let ((let112 (ff.mul let20 let3)))
  (let ((let113 _9_alt))
  (let ((let114 (ff.mul let113 let3)))
  (let ((let115 (ff.add let114 let40 let112 let111)))
  (let ((let116 (ff.add let114 let38)))
  (let ((let117 (ff.mul let116 let41)))
  (let ((let118 (= let117 let115)))
  (let ((let119 _56_alt))
  (let ((let120 (ff.mul let96 let3)))
  (let ((let121 (ff.add let120 let38)))
  (let ((let122 (ff.mul let121 let119)))
  (let ((let123 (= let122 let12)))
  (let ((let124 (ff.mul let96 let104)))
  (let ((let125 (= let124 let13)))
  (let ((let126 _19_alt))
  (let ((let127 (ff.add let126 let60 let59 let120)))
  (let ((let128 (ff.mul let126 let61)))
  (let ((let129 (= let128 let127)))
  (let ((let130 _57_alt))
  (let ((let131 (ff.mul let130 let3)))
  (let ((let132 (ff.add let131 let38)))
  (let ((let133 (ff.mul let106 let132)))
  (let ((let134 (= let133 let59)))
  (let ((let135 _63_alt))
  (let ((let136 (ff.mul let135 let3)))
  (let ((let137 (ff.add let136 let38)))
  (let ((let138 (ff.mul let104 let137)))
  (let ((let139 (= let138 let60)))
  (let ((let140 _71_alt))
  (let ((let141 (ff.mul let140 let132)))
  (let ((let142 (= let141 let104)))
  (let ((let143 _70_alt))
  (let ((let144 (ff.mul let143 let137)))
  (let ((let145 (= let144 let140)))
  (let ((let146 _2_alt))
  (let ((let147 _69_alt))
  (let ((let148 (ff.mul let147 let146)))
  (let ((let149 (= let148 let143)))
  (let ((let150 _68_alt))
  (let ((let151 (ff.mul let150 let64)))
  (let ((let152 (= let151 let147)))
  (let ((let153 _67_alt))
  (let ((let154 (ff.mul let153 let91)))
  (let ((let155 (= let154 let150)))
  (let ((let156 _66_alt))
  (let ((let157 (ff.mul let156 let41)))
  (let ((let158 (= let157 let153)))
  (let ((let159 (ff.mul let64 let119)))
  (let ((let160 (= let159 let156)))
  (let ((let161 (ff.add let113 let45 let3)))
  (let ((let162 (ff.mul let161 let161)))
  (let ((let163 (= let162 let135)))
  (let ((let164 _61_alt))
  (let ((let165 _7_alt))
  (let ((let166 (ff.add let165 let164 let46)))
  (let ((let167 (ff.mul let164 let165)))
  (let ((let168 (= let167 let166)))
  (let ((let169 (ff.mul let164 let3)))
  (let ((let170 _60_alt))
  (let ((let171 _16_alt))
  (let ((let172 (ff.add let171 let170 let169)))
  (let ((let173 (ff.mul let170 let171)))
  (let ((let174 (= let173 let172)))
  (let ((let175 (ff.mul let170 let3)))
  (let ((let176 _59_alt))
  (let ((let177 (ff.add let131 let176 let175 let38)))
  (let ((let178 (ff.mul let176 let132)))
  (let ((let179 (= let178 let177)))
  (let ((let180 (ff.mul let176 let3)))
  (let ((let181 _17_alt))
  (let ((let182 (ff.add let146 let181 let180)))
  (let ((let183 (ff.mul let181 let146)))
  (let ((let184 (= let183 let182)))
  (let ((let185 (ff.add let51 let88 let3)))
  (let ((let186 (ff.mul let185 let185)))
  (let ((let187 (= let186 let130)))
  (let ((let188 (ff.mul let119 let3)))
  (let ((let189 _0_alt))
  (let ((let190 (ff.add let189 let89 let188 let38)))
  (let ((let191 (ff.mul let189 let91)))
  (let ((let192 (= let191 let190)))
  (let ((let193 _53_alt))
  (let ((let194 (ff.add let171 let193 let89)))
  (let ((let195 (ff.mul let193 let171)))
  (let ((let196 (= let195 let194)))
  (let ((let197 (ff.mul let193 let3)))
  (let ((let198 _52_alt))
  (let ((let199 _18_alt))
  (let ((let200 (ff.add let199 let198 let197)))
  (let ((let201 (ff.mul let198 let199)))
  (let ((let202 (= let201 let200)))
  (let ((let203 (ff.mul let198 let3)))
  (let ((let204 _51_alt))
  (let ((let205 _5_alt))
  (let ((let206 (ff.add let205 let204 let203)))
  (let ((let207 (ff.mul let204 let205)))
  (let ((let208 (= let207 let206)))
  (let ((let209 (ff.mul let204 let3)))
  (let ((let210 _50_alt))
  (let ((let211 (ff.add let62 let210 let209)))
  (let ((let212 (ff.mul let210 let62)))
  (let ((let213 (= let212 let211)))
  (let ((let214 (ff.mul let210 let3)))
  (let ((let215 _49_alt))
  (let ((let216 (ff.add let181 let215 let214)))
  (let ((let217 (ff.mul let215 let181)))
  (let ((let218 (= let217 let216)))
  (let ((let219 (ff.mul let215 let3)))
  (let ((let220 (ff.add let51 let62 let219)))
  (let ((let221 (ff.mul let62 let51)))
  (let ((let222 (= let221 let220)))
  (let ((let223 _47_alt))
  (let ((let224 (ff.mul let223 let126)))
  (let ((let225 (= let224 let62)))
  (let ((let226 _46_alt))
  (let ((let227 (ff.mul let226 let116)))
  (let ((let228 (= let227 let223)))
  (let ((let229 _45_alt))
  (let ((let230 (ff.mul let229 let116)))
  (let ((let231 (= let230 let226)))
  (let ((let232 _44_alt))
  (let ((let233 (ff.mul let232 let68)))
  (let ((let234 (= let233 let229)))
  (let ((let235 _43_alt))
  (let ((let236 (ff.mul let235 let82)))
  (let ((let237 (= let236 let232)))
  (let ((let238 _42_alt))
  (let ((let239 (ff.mul let238 let126)))
  (let ((let240 (= let239 let235)))
  (let ((let241 _1_alt))
  (let ((let242 _41_alt))
  (let ((let243 (ff.mul let242 let241)))
  (let ((let244 (= let243 let238)))
  (let ((let245 _40_alt))
  (let ((let246 (ff.mul let245 let82)))
  (let ((let247 (= let246 let242)))
  (let ((let248 _39_alt))
  (let ((let249 (ff.mul let248 let241)))
  (let ((let250 (= let249 let245)))
  (let ((let251 _38_alt))
  (let ((let252 (ff.mul let251 let41)))
  (let ((let253 (= let252 let248)))
  (let ((let254 (ff.mul let113 let189)))
  (let ((let255 (= let254 let251)))
  (let ((let256 (ff.mul let205 let3)))
  (let ((let257 (ff.add let256 let82)))
  (let ((let258 (ff.mul let257 let257)))
  (let ((let259 (= let258 let39)))
  (let ((let260 (ff.mul let82 let3)))
  (let ((let261 _34_alt))
  (let ((let262 _6_alt))
  (let ((let263 (ff.add let262 let261 let260)))
  (let ((let264 (ff.mul let261 let262)))
  (let ((let265 (= let264 let263)))
  (let ((let266 (ff.mul let261 let3)))
  (let ((let267 _33_alt))
  (let ((let268 (ff.add let68 let267 let266)))
  (let ((let269 (ff.mul let267 let68)))
  (let ((let270 (= let269 let268)))
  (let ((let271 (ff.mul let267 let3)))
  (let ((let272 (ff.add let146 let70 let271)))
  (let ((let273 (ff.mul let70 let146)))
  (let ((let274 (= let273 let272)))
  (let ((let275 _31_alt))
  (let ((let276 (ff.mul let275 let70)))
  (let ((let277 (= let276 let68)))
  (let ((let278 (ff.mul let113 let199)))
  (let ((let279 (= let278 let275)))
  (let ((let280 (ff.mul let51 let3)))
  (let ((let281 (ff.add let280 let38)))
  (let ((let282 _29_alt))
  (let ((let283 (ff.mul let282 let281)))
  (let ((let284 (= let283 let70)))
  (let ((let285 _28_alt))
  (let ((let286 (ff.mul let285 let205)))
  (let ((let287 (= let286 let282)))
  (let ((let288 _27_alt))
  (let ((let289 (ff.mul let288 let262)))
  (let ((let290 (= let289 let285)))
  (let ((let291 _26_alt))
  (let ((let292 (ff.mul let291 let241)))
  (let ((let293 (= let292 let288)))
  (let ((let294 _25_alt))
  (let ((let295 (ff.mul let294 let171)))
  (let ((let296 (= let295 let291)))
  (let ((let297 _24_alt))
  (let ((let298 (ff.mul let297 let146)))
  (let ((let299 (= let298 let294)))
  (let ((let300 _23_alt))
  (let ((let301 (ff.mul let300 let189)))
  (let ((let302 (= let301 let297)))
  (let ((let303 _3_alt))
  (let ((let304 _22_alt))
  (let ((let305 (ff.mul let304 let303)))
  (let ((let306 (= let305 let300)))
  (let ((let307 _21_alt))
  (let ((let308 (ff.mul let307 let165)))
  (let ((let309 (= let308 let304)))
  (let ((let310 _20_alt))
  (let ((let311 (ff.mul let310 let281)))
  (let ((let312 (= let311 let307)))
  (let ((let313 (ff.mul let181 let205)))
  (let ((let314 (= let313 let310)))
  (let ((let315 (ff.mul let126 let3)))
  (let ((let316 (ff.mul let199 let3)))
  (let ((let317 (ff.add let165 let316 let315 let38)))
  (let ((let318 (ff.add let316 let38)))
  (let ((let319 (ff.mul let318 let165)))
  (let ((let320 (= let319 let317)))
  (let ((let321 (ff.mul let171 let3)))
  (let ((let322 (ff.add let321 let181 let316 let38)))
  (let ((let323 (ff.add let321 let38)))
  (let ((let324 (ff.mul let323 let181)))
  (let ((let325 (= let324 let322)))
  (let ((let326 (ff.mul let181 let3)))
  (let ((let327 (ff.mul let262 let3)))
  (let ((let328 (ff.add let303 let327 let326 let38)))
  (let ((let329 (ff.add let327 let38)))
  (let ((let330 (ff.mul let329 let303)))
  (let ((let331 (= let330 let328)))
  (let ((let332 _15_alt))
  (let ((let333 (ff.add let51 let332 let321)))
  (let ((let334 (ff.mul let332 let51)))
  (let ((let335 (= let334 let333)))
  (let ((let336 (ff.mul let332 let3)))
  (let ((let337 _14_alt))
  (let ((let338 (ff.add let189 let337 let336)))
  (let ((let339 (ff.mul let337 let189)))
  (let ((let340 (= let339 let338)))
  (let ((let341 (ff.mul let337 let3)))
  (let ((let342 (ff.add let241 let146 let341)))
  (let ((let343 (ff.mul let241 let146)))
  (let ((let344 (= let343 let342)))
  (let ((let345 (ff.mul let6 let3)))
  (let ((let346 _11_alt))
  (let ((let347 (ff.add let280 let346 let345 let38)))
  (let ((let348 (ff.mul let346 let281)))
  (let ((let349 (= let348 let347)))
  (let ((let350 (ff.add let303 let113 let3)))
  (let ((let351 (ff.mul let350 let350)))
  (let ((let352 (= let351 let346)))
  (let ((let353 (ff.mul let303 let165)))
  (let ((let354 (= let353 let113)))
  (let ((let355 (ff.mul let165 let165)))
  (let ((let356 (= let355 let165)))
  (let ((let357 (ff.mul let262 let262)))
  (let ((let358 (= let357 let262)))
  (let ((let359 (ff.mul let205 let205)))
  (let ((let360 (= let359 let205)))
  (let ((let361 (ff.mul let51 let51)))
  (let ((let362 (= let361 let51)))
  (let ((let363 (ff.mul let303 let303)))
  (let ((let364 (= let363 let303)))
  (let ((let365 (ff.mul let146 let146)))
  (let ((let366 (= let365 let146)))
  (let ((let367 (ff.mul let241 let241)))
  (let ((let368 (= let367 let241)))
  (let ((let369 (ff.mul let189 let189)))
  (let ((let370 (= let369 let189)))
  (let ((let371 (and let370 let368 let366 let364 let362 let360 let358 let356 let354 let352 let349 let344 let340 let335 let331 let325 let320 let314 let312 let309 let306 let302 let299 let296 let293 let290 let287 let284 let279 let277 let274 let270 let265 let259 let255 let253 let250 let247 let244 let240 let237 let234 let231 let228 let225 let222 let218 let213 let208 let202 let196 let192 let187 let184 let179 let174 let168 let163 let160 let158 let155 let152 let149 let145 let142 let139 let134 let129 let125 let123 let118 let110 let108 let103 let99 let93 let85 let79 let74 let66 let58 let54 let50 let44 let37 let31 let23 let17 let9 let2)))
  (let ((let372 out))
  (let ((let373 _109))
  (let ((let374 (= let373 let372)))
  (let ((let375 (ff.mul let373 let3)))
  (let ((let376 _108))
  (let ((let377 _13))
  (let ((let378 (ff.add let377 let376 let375)))
  (let ((let379 (ff.mul let376 let377)))
  (let ((let380 (= let379 let378)))
  (let ((let381 (ff.mul let376 let3)))
  (let ((let382 _107))
  (let ((let383 _84))
  (let ((let384 _83))
  (let ((let385 (ff.add let384 let383 let382 let381)))
  (let ((let386 (ff.add let384 let383)))
  (let ((let387 (ff.mul let382 let386)))
  (let ((let388 (= let387 let385)))
  (let ((let389 (ff.mul let382 let3)))
  (let ((let390 _106))
  (let ((let391 _86))
  (let ((let392 (ff.add let391 let390 let389)))
  (let ((let393 (ff.mul let390 let391)))
  (let ((let394 (= let393 let392)))
  (let ((let395 (ff.mul let390 let3)))
  (let ((let396 _105))
  (let ((let397 _91))
  (let ((let398 _90))
  (let ((let399 (ff.add let398 let397 let396 let395)))
  (let ((let400 (ff.add let398 let397)))
  (let ((let401 (ff.mul let396 let400)))
  (let ((let402 (= let401 let399)))
  (let ((let403 (ff.mul let396 let3)))
  (let ((let404 _104))
  (let ((let405 _97))
  (let ((let406 (ff.add let405 let404 let403)))
  (let ((let407 (ff.mul let404 let405)))
  (let ((let408 (= let407 let406)))
  (let ((let409 _36))
  (let ((let410 (ff.mul let409 let3)))
  (let ((let411 (ff.add let410 let38)))
  (let ((let412 _103))
  (let ((let413 (ff.mul let412 let411)))
  (let ((let414 (= let413 let404)))
  (let ((let415 _62))
  (let ((let416 (ff.mul let415 let3)))
  (let ((let417 (ff.add let416 let38)))
  (let ((let418 _102))
  (let ((let419 (ff.mul let418 let417)))
  (let ((let420 (= let419 let412)))
  (let ((let421 _4))
  (let ((let422 _101))
  (let ((let423 (ff.mul let422 let421)))
  (let ((let424 (= let423 let418)))
  (let ((let425 _99))
  (let ((let426 _100))
  (let ((let427 (ff.mul let426 let425)))
  (let ((let428 (= let427 let422)))
  (let ((let429 _77))
  (let ((let430 _76))
  (let ((let431 (ff.add let430 let429)))
  (let ((let432 _48))
  (let ((let433 (ff.mul let432 let3)))
  (let ((let434 (ff.add let433 let38)))
  (let ((let435 (ff.mul let434 let431)))
  (let ((let436 (= let435 let426)))
  (let ((let437 (ff.mul let425 let3)))
  (let ((let438 _32))
  (let ((let439 (ff.mul let438 let3)))
  (let ((let440 _30))
  (let ((let441 (ff.add let440 let439 let437 let38)))
  (let ((let442 (ff.add let439 let38)))
  (let ((let443 (ff.mul let442 let440)))
  (let ((let444 (= let443 let441)))
  (let ((let445 (ff.mul let405 let3)))
  (let ((let446 _96))
  (let ((let447 (ff.add let432 let446 let445)))
  (let ((let448 (ff.mul let446 let432)))
  (let ((let449 (= let448 let447)))
  (let ((let450 (ff.mul let446 let3)))
  (let ((let451 _95))
  (let ((let452 _35))
  (let ((let453 (ff.add let452 let451 let450)))
  (let ((let454 (ff.mul let451 let452)))
  (let ((let455 (= let454 let453)))
  (let ((let456 (ff.mul let451 let3)))
  (let ((let457 _94))
  (let ((let458 _54))
  (let ((let459 (ff.mul let458 let3)))
  (let ((let460 (ff.add let459 let457 let456 let38)))
  (let ((let461 (ff.add let459 let38)))
  (let ((let462 (ff.mul let457 let461)))
  (let ((let463 (= let462 let460)))
  (let ((let464 (ff.mul let457 let3)))
  (let ((let465 _93))
  (let ((let466 _79))
  (let ((let467 (ff.add let466 let465 let464)))
  (let ((let468 (ff.mul let465 let466)))
  (let ((let469 (= let468 let467)))
  (let ((let470 (ff.mul let465 let3)))
  (let ((let471 (ff.add let458 let430 let429 let470)))
  (let ((let472 (ff.mul let458 let431)))
  (let ((let473 (= let472 let471)))
  (let ((let474 _72))
  (let ((let475 (ff.mul let474 let3)))
  (let ((let476 (ff.add let475 let38)))
  (let ((let477 (ff.mul let476 let438)))
  (let ((let478 (= let477 let397)))
  (let ((let479 (ff.mul let474 let415)))
  (let ((let480 (= let479 let398)))
  (let ((let481 (ff.mul let391 let3)))
  (let ((let482 _9))
  (let ((let483 (ff.mul let482 let3)))
  (let ((let484 (ff.add let483 let410 let481 let111)))
  (let ((let485 (ff.add let483 let38)))
  (let ((let486 (ff.mul let485 let411)))
  (let ((let487 (= let486 let484)))
  (let ((let488 _56))
  (let ((let489 (ff.mul let466 let3)))
  (let ((let490 (ff.add let489 let38)))
  (let ((let491 (ff.mul let490 let488)))
  (let ((let492 (= let491 let383)))
  (let ((let493 (ff.mul let466 let474)))
  (let ((let494 (= let493 let384)))
  (let ((let495 _19))
  (let ((let496 (ff.add let495 let430 let429 let489)))
  (let ((let497 (ff.mul let495 let431)))
  (let ((let498 (= let497 let496)))
  (let ((let499 _57))
  (let ((let500 (ff.mul let499 let3)))
  (let ((let501 (ff.add let500 let38)))
  (let ((let502 (ff.mul let476 let501)))
  (let ((let503 (= let502 let429)))
  (let ((let504 _63))
  (let ((let505 (ff.mul let504 let3)))
  (let ((let506 (ff.add let505 let38)))
  (let ((let507 (ff.mul let474 let506)))
  (let ((let508 (= let507 let430)))
  (let ((let509 _71))
  (let ((let510 (ff.mul let509 let501)))
  (let ((let511 (= let510 let474)))
  (let ((let512 _70))
  (let ((let513 (ff.mul let512 let506)))
  (let ((let514 (= let513 let509)))
  (let ((let515 _2))
  (let ((let516 _69))
  (let ((let517 (ff.mul let516 let515)))
  (let ((let518 (= let517 let512)))
  (let ((let519 _68))
  (let ((let520 (ff.mul let519 let434)))
  (let ((let521 (= let520 let516)))
  (let ((let522 _67))
  (let ((let523 (ff.mul let522 let461)))
  (let ((let524 (= let523 let519)))
  (let ((let525 _66))
  (let ((let526 (ff.mul let525 let411)))
  (let ((let527 (= let526 let522)))
  (let ((let528 (ff.mul let434 let488)))
  (let ((let529 (= let528 let525)))
  (let ((let530 (ff.add let482 let415 let3)))
  (let ((let531 (ff.mul let530 let530)))
  (let ((let532 (= let531 let504)))
  (let ((let533 _61))
  (let ((let534 _7))
  (let ((let535 (ff.add let534 let533 let416)))
  (let ((let536 (ff.mul let533 let534)))
  (let ((let537 (= let536 let535)))
  (let ((let538 (ff.mul let533 let3)))
  (let ((let539 _60))
  (let ((let540 _16))
  (let ((let541 (ff.add let540 let539 let538)))
  (let ((let542 (ff.mul let539 let540)))
  (let ((let543 (= let542 let541)))
  (let ((let544 (ff.mul let539 let3)))
  (let ((let545 _59))
  (let ((let546 (ff.add let500 let545 let544 let38)))
  (let ((let547 (ff.mul let545 let501)))
  (let ((let548 (= let547 let546)))
  (let ((let549 (ff.mul let545 let3)))
  (let ((let550 _17))
  (let ((let551 (ff.add let515 let550 let549)))
  (let ((let552 (ff.mul let550 let515)))
  (let ((let553 (= let552 let551)))
  (let ((let554 (ff.add let421 let458 let3)))
  (let ((let555 (ff.mul let554 let554)))
  (let ((let556 (= let555 let499)))
  (let ((let557 (ff.mul let488 let3)))
  (let ((let558 _0))
  (let ((let559 (ff.add let558 let459 let557 let38)))
  (let ((let560 (ff.mul let558 let461)))
  (let ((let561 (= let560 let559)))
  (let ((let562 _53))
  (let ((let563 (ff.add let540 let562 let459)))
  (let ((let564 (ff.mul let562 let540)))
  (let ((let565 (= let564 let563)))
  (let ((let566 (ff.mul let562 let3)))
  (let ((let567 _52))
  (let ((let568 _18))
  (let ((let569 (ff.add let568 let567 let566)))
  (let ((let570 (ff.mul let567 let568)))
  (let ((let571 (= let570 let569)))
  (let ((let572 (ff.mul let567 let3)))
  (let ((let573 _51))
  (let ((let574 _5))
  (let ((let575 (ff.add let574 let573 let572)))
  (let ((let576 (ff.mul let573 let574)))
  (let ((let577 (= let576 let575)))
  (let ((let578 (ff.mul let573 let3)))
  (let ((let579 _50))
  (let ((let580 (ff.add let432 let579 let578)))
  (let ((let581 (ff.mul let579 let432)))
  (let ((let582 (= let581 let580)))
  (let ((let583 (ff.mul let579 let3)))
  (let ((let584 _49))
  (let ((let585 (ff.add let550 let584 let583)))
  (let ((let586 (ff.mul let584 let550)))
  (let ((let587 (= let586 let585)))
  (let ((let588 (ff.mul let584 let3)))
  (let ((let589 (ff.add let421 let432 let588)))
  (let ((let590 (ff.mul let432 let421)))
  (let ((let591 (= let590 let589)))
  (let ((let592 _47))
  (let ((let593 (ff.mul let592 let495)))
  (let ((let594 (= let593 let432)))
  (let ((let595 _46))
  (let ((let596 (ff.mul let595 let485)))
  (let ((let597 (= let596 let592)))
  (let ((let598 _45))
  (let ((let599 (ff.mul let598 let485)))
  (let ((let600 (= let599 let595)))
  (let ((let601 _44))
  (let ((let602 (ff.mul let601 let438)))
  (let ((let603 (= let602 let598)))
  (let ((let604 _43))
  (let ((let605 (ff.mul let604 let452)))
  (let ((let606 (= let605 let601)))
  (let ((let607 _42))
  (let ((let608 (ff.mul let607 let495)))
  (let ((let609 (= let608 let604)))
  (let ((let610 _1))
  (let ((let611 _41))
  (let ((let612 (ff.mul let611 let610)))
  (let ((let613 (= let612 let607)))
  (let ((let614 _40))
  (let ((let615 (ff.mul let614 let452)))
  (let ((let616 (= let615 let611)))
  (let ((let617 _39))
  (let ((let618 (ff.mul let617 let610)))
  (let ((let619 (= let618 let614)))
  (let ((let620 _38))
  (let ((let621 (ff.mul let620 let411)))
  (let ((let622 (= let621 let617)))
  (let ((let623 (ff.mul let482 let558)))
  (let ((let624 (= let623 let620)))
  (let ((let625 (ff.mul let574 let3)))
  (let ((let626 (ff.add let625 let452)))
  (let ((let627 (ff.mul let626 let626)))
  (let ((let628 (= let627 let409)))
  (let ((let629 (ff.mul let452 let3)))
  (let ((let630 _34))
  (let ((let631 _6))
  (let ((let632 (ff.add let631 let630 let629)))
  (let ((let633 (ff.mul let630 let631)))
  (let ((let634 (= let633 let632)))
  (let ((let635 (ff.mul let630 let3)))
  (let ((let636 _33))
  (let ((let637 (ff.add let438 let636 let635)))
  (let ((let638 (ff.mul let636 let438)))
  (let ((let639 (= let638 let637)))
  (let ((let640 (ff.mul let636 let3)))
  (let ((let641 (ff.add let515 let440 let640)))
  (let ((let642 (ff.mul let440 let515)))
  (let ((let643 (= let642 let641)))
  (let ((let644 _31))
  (let ((let645 (ff.mul let644 let440)))
  (let ((let646 (= let645 let438)))
  (let ((let647 (ff.mul let482 let568)))
  (let ((let648 (= let647 let644)))
  (let ((let649 (ff.mul let421 let3)))
  (let ((let650 (ff.add let649 let38)))
  (let ((let651 _29))
  (let ((let652 (ff.mul let651 let650)))
  (let ((let653 (= let652 let440)))
  (let ((let654 _28))
  (let ((let655 (ff.mul let654 let574)))
  (let ((let656 (= let655 let651)))
  (let ((let657 _27))
  (let ((let658 (ff.mul let657 let631)))
  (let ((let659 (= let658 let654)))
  (let ((let660 _26))
  (let ((let661 (ff.mul let660 let610)))
  (let ((let662 (= let661 let657)))
  (let ((let663 _25))
  (let ((let664 (ff.mul let663 let540)))
  (let ((let665 (= let664 let660)))
  (let ((let666 _24))
  (let ((let667 (ff.mul let666 let515)))
  (let ((let668 (= let667 let663)))
  (let ((let669 _23))
  (let ((let670 (ff.mul let669 let558)))
  (let ((let671 (= let670 let666)))
  (let ((let672 _3))
  (let ((let673 _22))
  (let ((let674 (ff.mul let673 let672)))
  (let ((let675 (= let674 let669)))
  (let ((let676 _21))
  (let ((let677 (ff.mul let676 let534)))
  (let ((let678 (= let677 let673)))
  (let ((let679 _20))
  (let ((let680 (ff.mul let679 let650)))
  (let ((let681 (= let680 let676)))
  (let ((let682 (ff.mul let550 let574)))
  (let ((let683 (= let682 let679)))
  (let ((let684 (ff.mul let495 let3)))
  (let ((let685 (ff.mul let568 let3)))
  (let ((let686 (ff.add let534 let685 let684 let38)))
  (let ((let687 (ff.add let685 let38)))
  (let ((let688 (ff.mul let687 let534)))
  (let ((let689 (= let688 let686)))
  (let ((let690 (ff.mul let540 let3)))
  (let ((let691 (ff.add let690 let550 let685 let38)))
  (let ((let692 (ff.add let690 let38)))
  (let ((let693 (ff.mul let692 let550)))
  (let ((let694 (= let693 let691)))
  (let ((let695 (ff.mul let550 let3)))
  (let ((let696 (ff.mul let631 let3)))
  (let ((let697 (ff.add let672 let696 let695 let38)))
  (let ((let698 (ff.add let696 let38)))
  (let ((let699 (ff.mul let698 let672)))
  (let ((let700 (= let699 let697)))
  (let ((let701 _15))
  (let ((let702 (ff.add let421 let701 let690)))
  (let ((let703 (ff.mul let701 let421)))
  (let ((let704 (= let703 let702)))
  (let ((let705 (ff.mul let701 let3)))
  (let ((let706 _14))
  (let ((let707 (ff.add let558 let706 let705)))
  (let ((let708 (ff.mul let706 let558)))
  (let ((let709 (= let708 let707)))
  (let ((let710 (ff.mul let706 let3)))
  (let ((let711 (ff.add let610 let515 let710)))
  (let ((let712 (ff.mul let610 let515)))
  (let ((let713 (= let712 let711)))
  (let ((let714 (ff.mul let377 let3)))
  (let ((let715 _11))
  (let ((let716 (ff.add let649 let715 let714 let38)))
  (let ((let717 (ff.mul let715 let650)))
  (let ((let718 (= let717 let716)))
  (let ((let719 (ff.add let672 let482 let3)))
  (let ((let720 (ff.mul let719 let719)))
  (let ((let721 (= let720 let715)))
  (let ((let722 (ff.mul let672 let534)))
  (let ((let723 (= let722 let482)))
  (let ((let724 (ff.mul let534 let534)))
  (let ((let725 (= let724 let534)))
  (let ((let726 (ff.mul let631 let631)))
  (let ((let727 (= let726 let631)))
  (let ((let728 (ff.mul let574 let574)))
  (let ((let729 (= let728 let574)))
  (let ((let730 (ff.mul let421 let421)))
  (let ((let731 (= let730 let421)))
  (let ((let732 (ff.mul let672 let672)))
  (let ((let733 (= let732 let672)))
  (let ((let734 (ff.mul let515 let515)))
  (let ((let735 (= let734 let515)))
  (let ((let736 (ff.mul let610 let610)))
  (let ((let737 (= let736 let610)))
  (let ((let738 (ff.mul let558 let558)))
  (let ((let739 (= let738 let558)))
  (let ((let740 (and let739 let737 let735 let733 let731 let729 let727 let725 let723 let721 let718 let713 let709 let704 let700 let694 let689 let683 let681 let678 let675 let671 let668 let665 let662 let659 let656 let653 let648 let646 let643 let639 let634 let628 let624 let622 let619 let616 let613 let609 let606 let603 let600 let597 let594 let591 let587 let582 let577 let571 let565 let561 let556 let553 let548 let543 let537 let532 let529 let527 let524 let521 let518 let514 let511 let508 let503 let498 let494 let492 let487 let480 let478 let473 let469 let463 let455 let449 let444 let436 let428 let424 let420 let414 let408 let402 let394 let388 let380 let374)))
  (let ((let741 (= let372 let0)))
  (let ((let742 (not let741)))
  (let ((let743 (= let534 let165)))
  (let ((let744 (= let574 let205)))
  (let ((let745 (= let610 let241)))
  (let ((let746 (= let558 let189)))
  (let ((let747 (= let631 let262)))
  (let ((let748 (= let515 let146)))
  (let ((let749 (= let421 let51)))
  (let ((let750 (= let672 let303)))
  (let ((let751 (and let750 let749 let748 let747 let746 let745 let744 let743)))
  (let ((let752 (and let751 let742 let740 let371)))
  let752
)))))))))))))))))))))))))))))))))))))))))))))))))))))))))))))))))))))))))))))))))))))))))))))))))))))))))))))))))))))))))))))))))))))))))))))))))))))))))))))))))))))))))))))))))))))))))))))))))))))))))))))))))))))))))))))))))))))))))))))))))))))))))))))))))))))))))))))))))))))))))))))))))))))))))))))))))))))))))))))))))))))))))))))))))))))))))))))))))))))))))))))))))))))))))))))))))))))))))))))))))))))))))))))))))))))))))))))))))))))))))))))))))))))))))))))))))))))))))))))))))))))))))))))))))))))))))))))))))))))))))))))))))))))))))))))))))))))))))))))))))))))))))))))))))))))))))))))))))))))))))))))))))))))))))))))))))))))))))))))))))))))))))))))))))))))))))))))))))))))))))))))))))))))))))))))))))))))))))))))))))))))))))))))))))))))))))))))))))
)
(check-sat)
